NAME : random98.764.tour
COMMENT : Length = 764
COMMENT : Found by LKH [Keld Helsgaun] Mon Dec 30 21:17:53 2024
TYPE : TOUR
DIMENSION : 98
TOUR_SECTION
1
16
26
15
72
66
64
21
12
82
56
10
48
7
84
49
90
59
79
28
40
54
41
63
51
67
11
68
34
50
55
43
78
33
27
35
37
46
83
29
45
75
91
24
3
22
5
80
31
58
25
94
23
95
13
53
30
88
92
19
87
86
97
32
36
4
71
6
57
76
85
39
96
38
18
52
60
14
2
9
69
74
61
93
81
17
62
20
73
65
44
8
47
98
89
42
77
70
-1
EOF
